SAT
-1 -75 -74 21 -29 -73 67 -17 72 49 26 -12 11 13 -42 -25 -28 20 58 46 -65 6 5 -55 2 -34 -7 19 -70 -8 -50 14 -10 -43 -47 -9 69 -40 -31 15 22 36 38 57 -41 -44 -3 62 64 -30 32 33 53 -18 -63 -66 -4 37 -23 -59 -54 27 -24 39 51 61 45 -48 -68 -71 60 -35 -16 52 -56 0
